
Gurobi 11.0.3 (linux64) logging started Tue 19 Nov 2024 01:31:14 AM CST

Set parameter LogFile to value "/home/dlcole3/graph_abstraction/hierarchical_graphs/git_storage/CS1/HP_low_reserves/gurobi_logs/serial/logfile_ST30_2.log"

Gurobi 11.0.3 (linux64) logging started Tue 19 Nov 2024 01:32:23 AM CST

Set parameter LogFile to value "/home/dlcole3/graph_abstraction/hierarchical_graphs/git_storage/CS1/HP_low_reserves/gurobi_logs/serial/logfile_ST30_2.log"
Gurobi Optimizer version 11.0.3 build v11.0.3rc0 (linux64 - "Ubuntu 18.04.3 LTS")

CPU model: Intel(R) Xeon(R) CPU E5-2698 v4 @ 2.20GHz, instruction set [SSE2|AVX|AVX2]
Thread count: 40 physical cores, 80 logical processors, using up to 20 threads

Optimize a model with 29168 rows, 50688 columns and 136175 nonzeros
Model fingerprint: 0x25c02aa1
Variable types: 46944 continuous, 3744 integer (3744 binary)
Coefficient statistics:
  Matrix range     [6e-01, 2e+04]
  Objective range  [2e+00, 2e+04]
  Bounds range     [5e-02, 2e+05]
  RHS range        [3e-03, 7e+03]
Presolve removed 14128 rows and 38514 columns
Presolve time: 0.38s
Presolved: 15040 rows, 12174 columns, 64365 nonzeros
Variable types: 9139 continuous, 3035 integer (3035 binary)
Found heuristic solution: objective 173590.78868
Found heuristic solution: objective 167828.06946
Found heuristic solution: objective 143055.77392

Root relaxation: objective 4.441236e+04, 8277 iterations, 0.37 seconds (0.27 work units)

    Nodes    |    Current Node    |     Objective Bounds      |     Work
 Expl Unexpl |  Obj  Depth IntInf | Incumbent    BestBd   Gap | It/Node Time

     0     0 44412.3648    0   15 143055.774 44412.3648  69.0%     -    1s
H    0     0                    82076.593489 44412.3648  45.9%     -    1s
     0     0 44412.3648    0   15 82076.5935 44412.3648  45.9%     -    2s
     0     2 44412.3648    0   15 82076.5935 44412.3648  45.9%     -    2s
H   31    52                    48110.751689 44518.3524  7.47%  14.6    2s
H   32    52                    47948.960210 44518.3524  7.15%  14.2    2s
H   40    52                    46408.455344 44655.6985  3.78%  15.6    2s
H   42    52                    45196.129049 44655.6985  1.20%  15.1    2s
H  209    44                    45176.081845 44748.6177  0.95%   7.3    2s
H  215    44                    45147.369450 44748.6177  0.88%   7.3    2s
H  301    51                    45139.825213 44748.6177  0.87%   6.6    3s
H  318    47                    45139.420349 44748.6177  0.87%   6.5    3s
H  340    47                    45044.849560 44748.6177  0.66%   6.5    3s
H  374    27                    45000.711598 44748.6177  0.56%   6.2    3s
H  426    40                    44997.396683 44767.3852  0.51%   5.8    3s
H  463    56                    44991.733598 44767.3852  0.50%   5.7    3s
H  488    56                    44988.883598 44767.3852  0.49%   5.6    3s
*  493    56              22    44987.553499 44767.3852  0.49%   5.5    3s
H  588    84                    44985.568707 44767.3852  0.49%   5.1    3s
H  603    84                    44985.568683 44767.3852  0.49%   5.0    3s
*  651    73              30    44984.850395 44820.9112  0.36%   4.9    3s

Explored 739 nodes (11827 simplex iterations) in 3.41 seconds (2.17 work units)
Thread count was 20 (of 80 available processors)

Solution count 10: 44984.9 44985.6 44985.6 ... 45139.4

Optimal solution found (tolerance 3.00e-03)
Best objective 4.498485039465e+04, best bound 4.489709963474e+04, gap 0.1951%

User-callback calls 3026, time in user-callback 0.00 sec
